(set-logic QF_S)
(declare-fun T_9 () Bool)
(declare-fun T_SELECT_2 () Bool)
(declare-fun T_SELECT_3 () Bool)
(declare-fun T_b () Bool)
(declare-fun T_c () Bool)
(declare-fun I0_18 () Int)
(declare-fun I1_18 () Int)
(declare-fun I2_18 () Int)
(declare-fun PCTEMP_LHS_2 () Int)
(declare-fun PCTEMP_LHS_3 () Int)
(declare-fun T_d () Int)
(declare-fun T0_10 () String)
(declare-fun T1_10 () String)
(declare-fun var_0xINPUT_36617 () String)
(assert (= var_0xINPUT_36617 (str.++ T0_10 T1_10)))
(assert (not (str.in.re T1_10 (str.to.re "__utma=218069774."))))
(assert T_9)
(assert (= T_9 (< (- 1) PCTEMP_LHS_2)))
(assert (= T_SELECT_3 (not (= PCTEMP_LHS_3 (- 1)))))
(assert T_c)
(assert (= T_c (not T_b)))
(assert (= T_b (< PCTEMP_LHS_3 0)))
(assert (>= PCTEMP_LHS_3 T_d))
(assert (= I2_18 I1_18))
(assert (<= PCTEMP_LHS_3 I1_18))
(assert (= I0_18 (- PCTEMP_LHS_3 T_d)))
(assert (>= T_d 0))
(assert (= T_d (+ PCTEMP_LHS_2 7)))
(assert (= PCTEMP_LHS_2 (- 1)))
(assert (= T_SELECT_2 (not (= PCTEMP_LHS_2 (- 1)))))
(assert (= 0 (str.len T0_10))) ; len 0
(assert (not T_SELECT_2))
(check-sat)
